Route #1: 1 42 26 7 37 19 31 43 41 45 1
Route #2: 1 38 48 30 9 6 52 1
Route #3: 1 28 11 36 34 8 44 47 35 33 39 1
Route #4: 1 23 27 14 20 16 50 18 13 1
Route #5: 1 3 49 10 17 5 46 24 51 4 32 1
Route #6: 1 40 29 12 22 15 25 21 1
Route #7: 1 2 1
cost 974
